p cnf 35 96
a 26 23 0
e 1 2 3 4 5 6 7 8 9 10 11 12 13 14 15 16 17 18 19 20 21 22 24 25 27 28 29 30 31 32 33 34 35 0
-3 -2 0
-3 -1 0
2 1 3 0
4 1 0
4 3 0
-1 -3 -4 0
-5 4 0
-5 3 0
-4 -3 5 0
-7 -6 -8 0
7 6 -8 0
-7 6 8 0
7 -6 8 0
9 6 0
9 -8 0
-6 8 -9 0
-10 -9 0
-10 -8 0
9 8 10 0
-11 10 0
-11 10 0
-10 11 0
-12 5 0
-12 -11 0
-5 11 12 0
-14 -13 0
-14 13 0
15 14 0
15 -3 0
-14 3 -15 0
16 12 0
16 15 0
-12 -15 -16 0
-18 -17 0
-18 -9 0
17 9 18 0
19 16 0
19 -18 0
-16 18 -19 0
7 -20 -21 0
-7 20 -21 0
7 20 21 0
-7 -20 21 0
-22 -7 0
-22 -9 0
7 9 22 0
22 -23 -24 0
-22 23 -24 0
22 23 24 0
-22 -23 24 0
-21 24 -25 0
21 -24 -25 0
-21 -24 25 0
21 24 25 0
26 -10 0
26 7 0
10 -7 -26 0
3 -22 -27 0
-3 22 -27 0
3 22 27 0
-3 -22 27 0
-28 -4 0
-28 -27 0
4 27 28 0
-26 -28 -29 0
26 28 -29 0
-26 28 29 0
26 -28 29 0
30 25 0
30 29 0
-25 -29 -30 0
-31 -6 0
-31 -6 0
6 31 0
32 -31 0
32 -23 0
31 23 -32 0
33 22 0
33 32 0
-22 -32 -33 0
34 -30 0
34 33 0
30 -33 -34 0
-35 19 0
-35 34 0
-19 -34 35 0
-26 12 10 -14 0
20 7 -33 -34 26 1 -31 0
-17 -12 8 -28 0
-25 -1 11 0
-7 -31 15 -2 32 0
-13 -5 16 -31 0
6 -30 18 -28 -9 0
9 29 35 -15 -26 14 -25 -11 0
-10 5 -29 14 -20 0
35 0
